50, 591
42, 42
37, 37
5, 5
41, 41
17, 17
50, 50
33, 33
45, 45
17, 17
2, 2
4, 4
25, 25
20, 20
30, 30
38, 38
34, 34
20, 20
34, 34
39, 39
7, 7
15, 15
41, 41
40, 40
31, 31
21, 21
43, 43
1, 1
14, 14
47, 47
15, 15
5, 5
10, 10
4, 4
4, 4
39, 39
22, 22
47, 47
8, 8
22, 22
11, 11
13, 13
17, 17
3, 3
38, 38
9, 9
30, 30
46, 46
4, 4
1, 1
42, 42
